12 32 3 10
14 3 12 7 5 9 8 14 12 1 3 7 7 1 15 20 20 14 12 7 20 20 7 5 2 9 18 3 1 20 16 2 
4.35 1.65 6.42 0.11 6.9 6.63 5.41 2.94 4.4 1.12 5.52 0.31 1.57 5.1 4.24 7.4 6.72 3.63 7.8 6.28 4.96 4.22 6.37 6.56 7.88 4.52 5.37 2.99 1.4 5.91 2.95 0.24 
3.84 2.1 7.59 7.91 7.14 2.59 6.02 6.47 3.21 5.2 5.91 0.36 5.54 4.14 6.91 7.98 6.06 1.21 1.38 3.94 2.44 3.66 4.27 7.02 2.34 2.27 5.66 0.19 1.54 5.13 5.45 2.38 
4.86 1.51 0.22 7.67 7.62 0.08 5.63 1.17 5.17 4.08 4.93 2.77 4.49 2.13 5.06 6.32 6.82 4.8 4.14 7.27 5.53 2.01 1.58 3.33 7.22 4.64 3.53 5.23 6.08 3.55 5.35 6.49 
4 4 4 4 4 4 4 4 4 4 4 4 4 4 4 4 4 4 4 4 4 4 4 4 4 4 4 4 4 4 4 4 
2.4 1.93 6.6 6.62 1.93 4.23 1.79 3.27 2.03 6.59 0.48 2.94 6.27 2.34 3.25 1.99 0.24 4.97 1.32 0.2 5.35 6.59 0.48 6.99 2.8 0.58 7.06 3.9 7.3 4.18 6.42 0.16 
0.04 5.39 6.59 2.32 3.86 0.76 7.67 5.66 0.61 2.14 7.67 3.78 2.7 2.74 4.03 3.23 4.86 0.33 0.93 6.66 4.77 7.19 7.19 2.25 4.28 5.04 4.17 1.8 1.74 0.93 2.35 2.53 
3.22 2.51 1.05 4.49 3.2 4.19 4.78 4.72 7.19 1.9 7.41 6.17 6.08 2.2 4.69 1 5.07 1.62 5.56 0.72 4.38 1.35 1.6 2.15 5.49 4.19 3.97 1.47 5.59 2.6 7.9 2.45 
4.5 6.9 2.81 6.14 2.02 7.24 0.27 3.92 7.59 0.39 7.68 4.61 6.79 1.6 4.98 6.25 0.03 5.77 6.81 1.08 2.14 3.8 5.47 3.38 1.81 3.07 6.31 1.25 1.37 7.11 0.3 1.01 
5.18 2.79 0.64 1.11 3.25 1.97 6.69 2.46 1.11 0.98 0.53 4.78 5 5 7.11 4.56 2.4 4.5 6.81 4.78 5.4 7.49 6.26 4.24 2.27 4.42 5.31 3.87 4.47 2.67 7.57 4.07 
5.42 2.24 3.21 4.51 5.9 4.82 6.93 1.03 4.11 2.44 6.33 0.81 7.06 3.4 3.03 2.22 6.7 1.07 7.76 6.65 4.47 0.56 1.72 0.79 4.87 4.86 6.56 0.7 3.97 5.64 2.27 0.86 
2.77 3.3 0.08 3.01 4.8 3.69 7.57 6.19 3.02 0.83 3.7 6.41 4.6 2.97 7.48 4.93 5.75 5.81 3.13 5.47 0.72 5.89 6.48 7.82 0.99 5.75 2.24 2.56 1.65 0.88 4.59 7.33 
7.61 0.93 3.41 0.04 3.25 1.53 0.31 7.18 6.92 1.62 0.23 5.84 6.2 1.8 6.34 0.91 6.93 6.14 2.11 5.86 7.03 3.68 7.58 3.94 7.74 3.95 4.07 0.8 1.64 2.68 5.45 3.37 
1 1 1 1 1 1 1 1 1 1 1 1 1 1 1 1 1 1 1 1 1 1 1 1 1 1 1 1 1 1 1 1 
1 1 1 1 1 1 1 1 1 1 1 1 1 1 1 1 1 1 1 1 1 1 1 1 1 1 1 1 1 1 1 1 
1 1 1 1 1 1 1 1 1 1 1 1 1 1 1 1 1 1 1 1 1 1 1 1 1 1 1 1 1 1 1 1 
1 1 1 1 1 1 1 1 1 1 1 1 1 1 1 1 1 1 1 1 1 1 1 1 1 1 1 1 1 1 1 1 
1 1 1 1 1 1 1 1 1 1 1 1 1 1 1 1 1 1 1 1 1 1 1 1 1 1 1 1 1 1 1 1 
1 1 1 1 1 1 1 1 1 1 1 1 1 1 1 1 1 1 1 1 1 1 1 1 1 1 1 1 1 1 1 1 
1 1 1 1 1 1 1 1 1 1 1 1 1 1 1 1 1 1 1 1 1 1 1 1 1 1 1 1 1 1 1 1 
1 1 1 1 1 1 1 1 1 1 1 1 1 1 1 1 1 1 1 1 1 1 1 1 1 1 1 1 1 1 1 1 
1 1 1 1 1 1 1 1 1 1 1 1 1 1 1 1 1 1 1 1 1 1 1 1 1 1 1 1 1 1 1 1 
1 1 1 1 1 1 1 1 1 1 1 1 1 1 1 1 1 1 1 1 1 1 1 1 1 1 1 1 1 1 1 1 
1 1 1 1 1 1 1 1 1 1 1 1 1 1 1 1 1 1 1 1 1 1 1 1 1 1 1 1 1 1 1 1 
1 1 1 1 1 1 1 1 1 1 1 1 1 1 1 1 1 1 1 1 1 1 1 1 1 1 1 1 1 1 1 1 
0.01 0.01 0.01 0.01 0.01 0.01 0.01 0.01 0.01 0.01 0.01 0.01 0.01 0.01 0.01 0.01 0.01 0.01 0.01 0.01 0.01 0.01 0.01 0.01 0.01 0.01 0.01 0.01 0.01 0.01 0.01 0.01 
0.02 0.02 0.02 0.02 0.02 0.02 0.02 0.02 0.02 0.02 0.02 0.02 0.02 0.02 0.02 0.02 0.02 0.02 0.02 0.02 0.02 0.02 0.02 0.02 0.02 0.02 0.02 0.02 0.02 0.02 0.02 0.02 
0.03 0.03 0.03 0.03 0.03 0.03 0.03 0.03 0.03 0.03 0.03 0.03 0.03 0.03 0.03 0.03 0.03 0.03 0.03 0.03 0.03 0.03 0.03 0.03 0.03 0.03 0.03 0.03 0.03 0.03 0.03 0.03 
0.04 0.04 0.04 0.04 0.04 0.04 0.04 0.04 0.04 0.04 0.04 0.04 0.04 0.04 0.04 0.04 0.04 0.04 0.04 0.04 0.04 0.04 0.04 0.04 0.04 0.04 0.04 0.04 0.04 0.04 0.04 0.04 
0.125 0.125 0.125 0.125 0.125 0.125 0.125 0.125 0.125 0.125 0.125 0.125 0.125 0.125 0.125 0.125 0.125 0.125 0.125 0.125 0.125 0.125 0.125 0.125 0.125 0.125 0.125 0.125 0.125 0.125 0.125 0.125 
0.25 0.25 0.25 0.25 0.25 0.25 0.25 0.25 0.25 0.25 0.25 0.25 0.25 0.25 0.25 0.25 0.25 0.25 0.25 0.25 0.25 0.25 0.25 0.25 0.25 0.25 0.25 0.25 0.25 0.25 0.25 0.25 
0.375 0.375 0.375 0.375 0.375 0.375 0.375 0.375 0.375 0.375 0.375 0.375 0.375 0.375 0.375 0.375 0.375 0.375 0.375 0.375 0.375 0.375 0.375 0.375 0.375 0.375 0.375 0.375 0.375 0.375 0.375 0.375 
0.5 0.5 0.5 0.5 0.5 0.5 0.5 0.5 0.5 0.5 0.5 0.5 0.5 0.5 0.5 0.5 0.5 0.5 0.5 0.5 0.5 0.5 0.5 0.5 0.5 0.5 0.5 0.5 0.5 0.5 0.5 0.5 
0.625 0.625 0.625 0.625 0.625 0.625 0.625 0.625 0.625 0.625 0.625 0.625 0.625 0.625 0.625 0.625 0.625 0.625 0.625 0.625 0.625 0.625 0.625 0.625 0.625 0.625 0.625 0.625 0.625 0.625 0.625 0.625 
0.75 0.75 0.75 0.75 0.75 0.75 0.75 0.75 0.75 0.75 0.75 0.75 0.75 0.75 0.75 0.75 0.75 0.75 0.75 0.75 0.75 0.75 0.75 0.75 0.75 0.75 0.75 0.75 0.75 0.75 0.75 0.75 
0.875 0.875 0.875 0.875 0.875 0.875 0.875 0.875 0.875 0.875 0.875 0.875 0.875 0.875 0.875 0.875 0.875 0.875 0.875 0.875 0.875 0.875 0.875 0.875 0.875 0.875 0.875 0.875 0.875 0.875 0.875 0.875 
1 1 1 1 1 1 1 1 1 1 1 1 1 1 1 1 1 1 1 1 1 1 1 1 1 1 1 1 1 1 1 1 
